
Gurobi 12.0.2 (win64) logging started Thu Nov 27 14:26:19 2025

Set parameter LogFile to value "resultados DATA_1_n20m20b2d1\instancia_2_log.txt"
Set parameter TimeLimit to value 3600
Gurobi Optimizer version 12.0.2 build v12.0.2rc0 (win64 - Windows 10.0 (19045.2))

CPU model: Intel(R) Core(TM) i5-6300U CPU @ 2.40GHz, instruction set [SSE2|AVX|AVX2]
Thread count: 2 physical cores, 4 logical processors, using up to 4 threads

Non-default parameters:
TimeLimit  3600

Optimize a model with 5852 rows, 61010 columns and 7166390 nonzeros
Model fingerprint: 0xce2c3892
Variable types: 0 continuous, 61010 integer (61010 binary)
Coefficient statistics:
  Matrix range     [1e+00, 1e+00]
  Objective range  [3e-03, 6e-02]
  Bounds range     [1e+00, 1e+00]
  RHS range        [1e+00, 2e+02]
Found heuristic solution: objective 0.9970000
Presolve removed 0 rows and 4269 columns (presolve time = 5s)...
Presolve removed 0 rows and 11789 columns (presolve time = 10s)...
Presolve removed 0 rows and 11789 columns (presolve time = 15s)...
Presolve removed 0 rows and 11789 columns (presolve time = 20s)...
Presolve removed 0 rows and 11789 columns (presolve time = 25s)...
Presolve removed 0 rows and 11789 columns (presolve time = 30s)...
Presolve removed 0 rows and 11789 columns (presolve time = 35s)...
Presolve removed 0 rows and 11789 columns (presolve time = 41s)...
Presolve removed 0 rows and 11789 columns (presolve time = 45s)...
Presolve removed 0 rows and 11789 columns (presolve time = 50s)...
Presolve removed 0 rows and 11789 columns (presolve time = 55s)...
Presolve removed 0 rows and 11789 columns (presolve time = 60s)...
Presolve removed 0 rows and 11789 columns (presolve time = 65s)...
Presolve removed 0 rows and 11789 columns (presolve time = 70s)...
Presolve removed 0 rows and 11789 columns (presolve time = 75s)...
Presolve removed 0 rows and 11789 columns (presolve time = 80s)...
Presolve removed 0 rows and 11789 columns (presolve time = 85s)...
Presolve removed 0 rows and 11789 columns (presolve time = 90s)...
Presolve removed 0 rows and 11789 columns (presolve time = 95s)...
Presolve removed 0 rows and 11789 columns (presolve time = 100s)...
Presolve removed 0 rows and 11789 columns (presolve time = 105s)...
Presolve removed 0 rows and 11789 columns (presolve time = 110s)...
Presolve removed 0 rows and 11789 columns (presolve time = 115s)...
Presolve removed 0 rows and 11789 columns
Presolve time: 115.81s
Presolved: 5852 rows, 49221 columns, 5667893 nonzeros
Variable types: 0 continuous, 49221 integer (49221 binary)
Deterministic concurrent LP optimizer: dual simplex and barrier
Showing barrier log only...

Root barrier log...

Ordering time: 0.05s

Barrier statistics:
 AA' NZ     : 2.516e+05
 Factor NZ  : 2.743e+05 (roughly 5 MB of memory)
 Factor Ops : 1.316e+08 (less than 1 second per iteration)
 Threads    : 1

                  Objective                Residual
Iter       Primal          Dual         Primal    Dual     Compl     Time
   0   1.61681586e+03  1.10956103e+00  4.89e+03 4.77e-04  1.01e-01   124s
   1   1.14092022e+02  8.19637313e+00  3.51e+02 1.13e-03  7.57e-03   124s
   2   1.58092341e+01  5.74988191e+00  4.53e+01 7.22e-16  1.28e-03   124s
   3   6.65279548e+00  3.65961918e+00  1.74e+01 5.55e-16  5.48e-04   125s
   4   3.15865172e+00  2.35951424e+00  6.68e+00 3.89e-16  2.38e-04   125s
   5   2.25301962e+00  2.18494023e+00  3.91e+00 5.55e-16  1.52e-04   125s
   6   1.13373475e+00  1.42776505e+00  4.34e-01 4.86e-16  3.53e-05   125s
   7   1.00649945e+00  1.06073617e+00  2.39e-02 3.89e-16  4.52e-06   125s
   8   9.99736331e-01  1.00715605e+00  1.50e-03 4.93e-16  5.61e-07   126s
   9   9.99914815e-01  1.00076823e+00  2.06e-05 3.98e-16  5.85e-08   126s
  10   9.99997908e-01  1.00003291e+00  0.00e+00 3.63e-16  2.35e-09   126s
  11   9.99999998e-01  1.00000003e+00  0.00e+00 2.76e-16  2.38e-12   126s
  12   1.00000000e+00  1.00000000e+00  0.00e+00 5.27e-16  2.38e-15   127s

Barrier solved model in 12 iterations and 126.63 seconds (33.45 work units)
Optimal objective 1.00000000e+00


Root crossover log...

     117 DPushes remaining with DInf 0.0000000e+00               127s
       0 DPushes remaining with DInf 0.0000000e+00               127s

    6342 PPushes remaining with PInf 0.0000000e+00               127s
    1863 PPushes remaining with PInf 0.0000000e+00               130s
       0 PPushes remaining with PInf 0.0000000e+00               132s

  Push phase complete: Pinf 0.0000000e+00, Dinf 2.0604829e-14    132s


Root simplex log...

Iteration    Objective       Primal Inf.    Dual Inf.      Time
    6462    1.0000000e+00   0.000000e+00   0.000000e+00    132s
Concurrent spin time: 0.00s

Solved with barrier

Use crossover to convert LP symmetric solution to basic solution...

Root crossover log...

     136 DPushes remaining with DInf 0.0000000e+00               192s
     135 DPushes remaining with DInf 0.0000000e+00               195s
      31 DPushes remaining with DInf 0.0000000e+00               205s
       0 DPushes remaining with DInf 0.0000000e+00               211s

     507 PPushes remaining with PInf 0.0000000e+00               212s
     506 PPushes remaining with PInf 0.0000000e+00               218s
     398 PPushes remaining with PInf 0.0000000e+00               231s
     289 PPushes remaining with PInf 0.0000000e+00               247s
     188 PPushes remaining with PInf 0.0000000e+00               253s
      93 PPushes remaining with PInf 0.0000000e+00               260s
       0 PPushes remaining with PInf 0.0000000e+00               267s

  Push phase complete: Pinf 0.0000000e+00, Dinf 1.7049174e-09    267s


Root simplex log...

Iteration    Objective       Primal Inf.    Dual Inf.      Time
    7108    1.0000000e+00   0.000000e+00   0.000000e+00    270s

Root relaxation: objective 1.000000e+00, 7108 iterations, 151.33 seconds (42.78 work units)

    Nodes    |    Current Node    |     Objective Bounds      |     Work
 Expl Unexpl |  Obj  Depth IntInf | Incumbent    BestBd   Gap | It/Node Time

     0     0    1.00000    0 5124    0.99700    1.00000  0.30%     -  583s
     0     0    1.00000    0 5124    0.99700    1.00000  0.30%     - 1195s
H    0     0                       1.0000000    1.00000  0.00%     - 2198s

Explored 1 nodes (15292 simplex iterations) in 2198.69 seconds (1412.96 work units)
Thread count was 4 (of 4 available processors)

Solution count 2: 1 0.997 
No other solutions better than 1

Optimal solution found (tolerance 1.00e-04)
Best objective 1.000000000000e+00, best bound 1.000000000000e+00, gap 0.0000%
